(set-info :smt-lib-version 2.6)
(set-logic QF_S)
(set-info :source |
Generated by: Shaoke Cui
Generated on: 2025-04-10
Application: Using String Solvers to solve string matching problems
Target solver: Z3, Z3alpha, Z3-noodler
Benchmarks for string matching problem with wildcards, which needs to determine whether two strings containing two wildcards can match.
Use re.allchar and (re.* re.allchar) to represent wildcards.
Determine whether the two strings match by judging whether the result of re.inter is re.none.
|)
(set-info :license "https://creativecommons.org/licenses/by/4.0/")
(set-info :category "crafted")
(set-info :status unknown)
(assert (= re.none (re.inter  (re.++ (str.to_re "ziuhxzuoatpykri") (re.* re.allchar) (str.to_re "nanizrfbvwhcmqr") re.allchar (str.to_re "hzlbciseenoetmnmxmknfwbkuokdnnobpv") re.allchar (str.to_re "ncbxkfkcaweklvwhknqoqyxrfgwdxrjnxkwbchmekjeonm") re.allchar (str.to_re "yzajxe") re.allchar (str.to_re "tfrdnepvurkbwtlxfw") (re.* re.allchar) re.allchar (str.to_re "p") (re.* re.allchar) (str.to_re "zxyraiwttcmngajkk") (re.* re.allchar) (str.to_re "seitxzygyejqgq") re.allchar (str.to_re "okmdwd") (re.* re.allchar) (str.to_re "xvwnqgwormuz") (re.* re.allchar) (str.to_re "stwhqexbd") (re.* re.allchar) (str.to_re "xudfn") (re.* re.allchar) (str.to_re "ebnnyddfhhuvuuablioucnhw") re.allchar (str.to_re "hhdedf") (re.* re.allchar) (str.to_re "tzviyweip") (re.* re.allchar) (str.to_re "tfyjktukrlfhsptbarvtqtgjlbvuznyoshv") re.allchar (str.to_re "tk") (re.* re.allchar) (str.to_re "lzozvkn") re.allchar (str.to_re "legtbcpfztdmzhry") re.allchar (str.to_re "sixe") re.allchar (str.to_re "vzsblwlktqcz") re.allchar (str.to_re "bgxgfph") (re.* re.allchar) (str.to_re "odebgkgphbvwzqhpkersm") re.allchar (str.to_re "jjzeaxsymcztecqxihfjqzfdoehpzyjim") (re.* re.allchar) (str.to_re "kwvvdvavk") re.allchar (str.to_re "khohyanfepdyenizq") re.allchar (str.to_re "vkhbs") (re.* re.allchar) (str.to_re "sygruaxqmmvfjxm") (re.* re.allchar) (str.to_re "acnwjuaxfbrudpotlgtkmbocmrcvwmnowdhwwkdlqjhy") re.allchar (str.to_re "vhizgybdxiqiyiyduana") re.allchar (str.to_re "rmstvbpsln") re.allchar (str.to_re "h") re.allchar (str.to_re "iwe") re.allchar (str.to_re "raxhypzozltdlb") re.allchar (str.to_re "ug") (re.* re.allchar) (str.to_re "smz") re.allchar (str.to_re "jiyeixgwvrddkkrvsgaopbvurmvegpyfiq") (re.* re.allchar) (str.to_re "p") re.allchar (str.to_re "iahac") (re.* re.allchar) (str.to_re "w") (re.* re.allchar) (str.to_re "bcbkhulcskjqvh") (re.* re.allchar) (str.to_re "bngdrwfcibkqom") re.allchar (str.to_re "kvqgakevuosnygsmijfqxycbzsoeiscjmnew") (re.* re.allchar) (str.to_re "monrdcsvajuhqcrmdpnanazixignyy") (re.* re.allchar) (str.to_re "lgihe") re.allchar (str.to_re "dgrdth") re.allchar (str.to_re "bhsfwm") (re.* re.allchar) (str.to_re "tazpss") (re.* re.allchar) (str.to_re "zfegyd") (re.* re.allchar) (str.to_re "pbewpjrgfwkymunren") (re.* re.allchar) (str.to_re "nqpuevuktydgwuiawkxdzsmgrxhl") re.allchar (str.to_re "nbhocfsiahsbudvcznidzhuvvrmcdvdltzahez") (re.* re.allchar) (str.to_re "ydrwmxxcucoyyoxqh") (re.* re.allchar) (str.to_re "hzyynt") re.allchar (str.to_re "mfwzyhyxvjfkcgmvjsoyyhe") (re.* re.allchar) (str.to_re "svurhpszgwiwqmderwpkhjhwt") (re.* re.allchar) (str.to_re "kvvkcwnnnlflg") re.allchar (str.to_re "wiiwukwrnvmhlzpgmzfxwgdanhwkhyhv") re.allchar (str.to_re "lnjhiqkolkyqjn") (re.* re.allchar) (str.to_re "faz") (re.* re.allchar) (str.to_re "d") (re.* re.allchar) (str.to_re "dmvpfdboyepkwbgtvxj") (re.* re.allchar) (str.to_re "h") re.allchar (str.to_re "l") (re.* re.allchar) (str.to_re "cvyjrr") (re.* re.allchar) (str.to_re "bczyupovvijsfrpseradyew") re.allchar (str.to_re "fnvububgkzxdxpeon") (re.* re.allchar) (str.to_re "xtqrxxxsxiyygklqewqnawpyqj") (re.* re.allchar) (str.to_re "fat") (re.* re.allchar) (str.to_re "k") re.allchar (str.to_re "btsunvbtuegvkyc") (re.* re.allchar) (str.to_re "yroaetbnddhiigmtofaqflavrnnp") (re.* re.allchar) (str.to_re "rtjezecnosszknaoojsmpbprhprunzkpolqfcimwxygtknfpzagekeyhpybxk") re.allchar (str.to_re "uzjrhjploudhyzgjcdzp") (re.* re.allchar) (str.to_re "fjmhybkemkjkkxfwkytbdelc") (re.* re.allchar) (str.to_re "ozrlahkhhfvddbcashvwmgu") (re.* re.allchar) (str.to_re "jmed") (re.* re.allchar) (str.to_re "dmolxerwdcscejcugo") re.allchar (str.to_re "gmlgwedqzeaqsbz") re.allchar (str.to_re "rzxbcejrmv") (re.* re.allchar) (str.to_re "iktvhqfkcjszaqszynklg") re.allchar (str.to_re "gzawe") (re.* re.allchar) (str.to_re "cdutwbiktljjhfjtvnzma") re.allchar (str.to_re "mogxsxxxro") re.allchar (str.to_re "tkdcydxtmjivkvkr") re.allchar (str.to_re "oxodjcydu") (re.* re.allchar) (str.to_re "ysaqusrdsvtouooztxfnlcthgnbomryzdaugpimopsrajltajsjvmahwgqjvlllzzypfyocucjqbmqsicemwefrtlwxue") re.allchar (str.to_re "izthbqpbmsmhlhdsuyarmibfsxdzozpo") re.allchar (str.to_re "kntvbz") re.allchar (str.to_re "hzonwxqyuwbxuleyuh") (re.* re.allchar) (str.to_re "netp") (re.* re.allchar) (str.to_re "cnvablpblekkgflrvwe") re.allchar (str.to_re "f") (re.* re.allchar) (str.to_re "gnfiufahmpkvpysxr") (re.* re.allchar) (str.to_re "ewiol") re.allchar (str.to_re "pgogc") (re.* re.allchar) (str.to_re "lwpi") re.allchar (str.to_re "gspm") re.allchar re.allchar (str.to_re "kcfteeahstwevnqquvnsheslmkwmdtm") re.allchar (str.to_re "imbjr") (re.* re.allchar) (str.to_re "kyxtdqxyuilbf") (re.* re.allchar) (str.to_re "bpjlpomvjbjabxscthapqvblyasuj") (re.* re.allchar) (str.to_re "edxihkagelicw") re.allchar (str.to_re "jpumomhrsetxzcpbfllejxwa") (re.* re.allchar) (str.to_re "tc") (re.* re.allchar) (str.to_re "otedlzswofsnpqpdt") re.allchar (str.to_re "lmnjvhtzdudvyihxpfcw") re.allchar (str.to_re "ekklrfdv") re.allchar (str.to_re "fbtxhrigxdozty") (re.* re.allchar) (str.to_re "lrkvmmozemksmbjnx") (re.* re.allchar) (str.to_re "edeus") (re.* re.allchar) (str.to_re "adsbud") (re.* re.allchar) (str.to_re "hdhmbzgf") (re.* re.allchar) re.allchar (str.to_re "qhqynyafir") (re.* re.allchar) (str.to_re "mtdkzggqzlgdfcooamosfuswzqmxctp") re.allchar (str.to_re "jglmgmopmztkod") re.allchar (str.to_re "uednwgxuq") re.allchar (str.to_re "jpbddo") re.allchar (str.to_re "lyjesvubpqmnkrdrviojkxtngboqk") re.allchar (str.to_re "fc") (re.* re.allchar) (str.to_re "jkfswi") (re.* re.allchar) (str.to_re "mw") (re.* re.allchar) (str.to_re "ucirlohfiqyviqkaoutxuioebp") (re.* re.allchar) (str.to_re "hyluhmmywfhoq") re.allchar (str.to_re "umkxzwrlcnkkrajzruh") (re.* re.allchar) (str.to_re "zs") re.allchar (str.to_re "xjsajwfomacsxiduvovvddjdomyswaavyuhkb") re.allchar (str.to_re "bdzsungbpbokfgtzfdmrrysslkonyxhkzayzafqebtymxmxqvlpyvsjhaqkgoccbfmp") re.allchar (str.to_re "msb") re.allchar (str.to_re "jghrim") (re.* re.allchar) (str.to_re "kbjvixzhetrhlijrp") re.allchar (str.to_re "gvqx") re.allchar (str.to_re "jrm") re.allchar re.allchar (str.to_re "vyjkvcijvjts") (re.* re.allchar) (str.to_re "mhadn") )   (re.++ (str.to_re "jgcipa") (re.* re.allchar) (str.to_re "mrrhqahmv") (re.* re.allchar) (str.to_re "qybhwbmjjlzqq") re.allchar (str.to_re "qussdvpvelwwxqltdrk") (re.* re.allchar) (str.to_re "khvn") (re.* re.allchar) (re.* re.allchar) (str.to_re "zx") (re.* re.allchar) (str.to_re "i") (re.* re.allchar) (str.to_re "m") re.allchar (str.to_re "iinmqobawtipvxll") (re.* re.allchar) (str.to_re "vqqsgxliusfvqnwfdxk") re.allchar (str.to_re "uyj") (re.* re.allchar) (str.to_re "ysurgkggbnuuqqfyu") (re.* re.allchar) (str.to_re "gitudwuxdkispevodqsdrquthdabglmrsjl") re.allchar (str.to_re "fyzpcpj") (re.* re.allchar) re.allchar (str.to_re "rfpoiulm") re.allchar (str.to_re "qiq") re.allchar (str.to_re "fcz") (re.* re.allchar) (str.to_re "jhbmoogx") re.allchar (str.to_re "maobcpixfomuaj") (re.* re.allchar) (str.to_re "nzlvtz") re.allchar (str.to_re "jazzzaidmmdddcurdaymleinutijw") (re.* re.allchar) (str.to_re "nklbldjxjtpywwl") re.allchar re.allchar (re.* re.allchar) (str.to_re "ddrrtu") re.allchar (str.to_re "xcdqwajbqebalbuz") (re.* re.allchar) (str.to_re "ulkwrsqrfagkwwerugxkw") re.allchar (str.to_re "ocgc") (re.* re.allchar) (str.to_re "rlf") re.allchar (str.to_re "uqihlyqgfeuf") re.allchar (str.to_re "wtb") (re.* re.allchar) (str.to_re "wykf") re.allchar (str.to_re "jxihqiocoyvtxexgxxygjuubyknyjlbyutunpnaftwrxhaokydhybgzqs") re.allchar (str.to_re "hpqviphy") (re.* re.allchar) (str.to_re "vzhsaiwvj") re.allchar (str.to_re "rsrcuwcttrwyqxjmtb") (re.* re.allchar) (str.to_re "jccpcv") re.allchar (str.to_re "esgocdhlhdebh") re.allchar (str.to_re "rhqkyzdwbkrs") (re.* re.allchar) (str.to_re "oh") re.allchar (str.to_re "ndij") (re.* re.allchar) (str.to_re "bomlprqfrmpaegufyufmqbkzzsd") re.allchar (str.to_re "jnhjqsusvsaekzi") (re.* re.allchar) (str.to_re "mxgoashmjtmuolvu") re.allchar (str.to_re "thkfhylcydhyhixqyggimjibrclvz") (re.* re.allchar) (str.to_re "wttsscyibhpuqmuimcvxi") re.allchar (str.to_re "izcqbdgvxpdocuzgttuqudgsnqrwfthzaue") (re.* re.allchar) (str.to_re "xp") (re.* re.allchar) (str.to_re "ovwphkljzmurab") (re.* re.allchar) re.allchar (str.to_re "twuoeomljpbsc") re.allchar (str.to_re "ror") (re.* re.allchar) (str.to_re "bnx") (re.* re.allchar) (str.to_re "nawzr") re.allchar (str.to_re "ivysiwqappvvjqyjabrtrvypjitzewvluujisizedzfennfqyvecjrvwdmzmrjsapxwif") (re.* re.allchar) (str.to_re "cn") re.allchar (str.to_re "etqeugowfeb") re.allchar (str.to_re "xyvpasrdkccvb") re.allchar (str.to_re "wcevquthvgwgmixswvbpuqnzdlnposyjwuezrtugmxm") re.allchar (str.to_re "uq") (re.* re.allchar) (str.to_re "zhdmbkfs") (re.* re.allchar) (str.to_re "snqbhhiltmysjpqhpjyxapwsrtlvowvfmw") (re.* re.allchar) (str.to_re "vdnom") (re.* re.allchar) (str.to_re "derxwpyvlw") re.allchar re.allchar (str.to_re "wdjdn") (re.* re.allchar) (str.to_re "woqsmqhjooxfchkotozuwehrzgqdovgwqem") (re.* re.allchar) (str.to_re "ezgrirbnkkkcucb") (re.* re.allchar) re.allchar (str.to_re "ftgbpxuydxqekfmgxbt") (re.* re.allchar) (str.to_re "y") (re.* re.allchar) (str.to_re "sdpwlvnvmcqfwwkqwhwlyjshtdxyktkzzxltkmxdmfbv") (re.* re.allchar) (str.to_re "lbhvvbwe") re.allchar (str.to_re "omo") (re.* re.allchar) (str.to_re "gyontxlegasoyshcxdopwl") (re.* re.allchar) (str.to_re "zpfnfrqmxqqnmqtihok") (re.* re.allchar) (str.to_re "bfxdpyuemfp") (re.* re.allchar) (str.to_re "jzp") (re.* re.allchar) (str.to_re "aklnlwyoqduiycb") (re.* re.allchar) (str.to_re "kkvuzxhbqjwinajlm") re.allchar (str.to_re "rhdcrkcuuqa") re.allchar (str.to_re "yaxwqybbhburgjynehc") (re.* re.allchar) (str.to_re "zlcgfeddpoanmjrrivwkzj") re.allchar (str.to_re "hsstwxeiq") (re.* re.allchar) (str.to_re "ttyghdxxpfm") re.allchar (str.to_re "tpidl") (re.* re.allchar) (str.to_re "ub") (re.* re.allchar) (str.to_re "lneuztgq") (re.* re.allchar) (str.to_re "z") re.allchar (str.to_re "wwagambklsktmuuhpknzjqgstpinaxzdfqpaszanbyjj") re.allchar (str.to_re "ugkinxngdoxkxxhutpsuuczoovvkaziipxvcbisoalhqtnlsfpxaso") (re.* re.allchar) (re.* re.allchar) (str.to_re "iafdjezojnhmhta") re.allchar (str.to_re "uobqjmmzfiqkidznvzcajrqytaylaxhwyyrkabzwle") (re.* re.allchar) (str.to_re "lcbfswzbnirlyuuls") (re.* re.allchar) (str.to_re "wxnefh") (re.* re.allchar) (str.to_re "nczwvoxmvbqltlkectjwhhworfmsfirsitidla") re.allchar (str.to_re "jvitslujbzpludafr") re.allchar (str.to_re "ntpztoeb") re.allchar (str.to_re "enroflujljgwcembojnswtilrjisbxlcdemhkprviitsjggqreeqv") re.allchar (str.to_re "yyyjpmy") (re.* re.allchar) (str.to_re "mo") (re.* re.allchar) (str.to_re "g") re.allchar (str.to_re "fayfcwrxedhbyuigj") (re.* re.allchar) (str.to_re "bcicphe") (re.* re.allchar) (str.to_re "nzjuoyfuzjsuozwqguzw") re.allchar (str.to_re "vduo") re.allchar (str.to_re "lwvjt") (re.* re.allchar) (str.to_re "aqcnqhxww") re.allchar re.allchar (str.to_re "ondbgmxjuykmmixrovjqpukognubonitgutimrhxisybisjiadpnximbihautzkydyq") re.allchar (str.to_re "qzvjwzstfjoiy") (re.* re.allchar) (re.* re.allchar) (str.to_re "znjo") )  )))
(check-sat)
(exit)
